<?xml version = "1.0" encoding="UTF-8" standalone="yes"?>
<CPLEXSolution version="1.2">
 <header
   problemName="results/InstanceB8_bigm_finsteps123.lp"
   solutionName="incumbent"
   solutionIndex="-1"
   objectiveValue="6"
   solutionTypeValue="3"
   solutionTypeString="primal"
   solutionStatusValue="101"
   solutionStatusString="integer optimal solution"
   solutionMethodString="mip"
   primalFeasible="1"
   dualFeasible="1"
   MIPNodes="0"
   MIPIterations="37"
   writeLevel="1"/>
 <quality
   epInt="1.0000000000000001e-05"
   epRHS="9.9999999999999995e-07"
   maxIntInfeas="2.2204460492503131e-16"
   maxPrimalInfeas="4.5474735088646412e-13"
   maxX="43200"
   maxSlack="43173"/>
 <linearConstraints>
  <constraint name="c1" index="0" slack="0"/>
  <constraint name="c2" index="1" slack="0"/>
  <constraint name="c3" index="2" slack="0"/>
  <constraint name="c4" index="3" slack="0"/>
  <constraint name="c5" index="4" slack="0"/>
  <constraint name="c6" index="5" slack="0"/>
  <constraint name="c7" index="6" slack="0"/>
  <constraint name="c8" index="7" slack="0"/>
  <constraint name="c9" index="8" slack="0"/>
  <constraint name="c10" index="9" slack="0"/>
  <constraint name="c11" index="10" slack="0"/>
  <constraint name="c12" index="11" slack="0"/>
  <constraint name="c13" index="12" slack="0"/>
  <constraint name="c14" index="13" slack="0"/>
  <constraint name="c15" index="14" slack="0"/>
  <constraint name="c16" index="15" slack="0"/>
  <constraint name="c17" index="16" slack="0"/>
  <constraint name="c18" index="17" slack="0"/>
  <constraint name="c19" index="18" slack="0"/>
  <constraint name="c20" index="19" slack="0"/>
  <constraint name="c21" index="20" slack="0"/>
  <constraint name="c22" index="21" slack="0"/>
  <constraint name="c23" index="22" slack="0"/>
  <constraint name="c24" index="23" slack="0"/>
  <constraint name="c25" index="24" slack="0"/>
  <constraint name="c26" index="25" slack="0"/>
  <constraint name="c27" index="26" slack="0"/>
  <constraint name="c28" index="27" slack="0"/>
  <constraint name="c29" index="28" slack="0"/>
  <constraint name="c30" index="29" slack="0"/>
  <constraint name="c31" index="30" slack="0"/>
  <constraint name="c32" index="31" slack="-29139"/>
  <constraint name="c33" index="32" slack="0"/>
  <constraint name="c34" index="33" slack="0"/>
  <constraint name="c35" index="34" slack="0"/>
  <constraint name="c36" index="35" slack="0"/>
  <constraint name="c37" index="36" slack="0"/>
  <constraint name="c38" index="37" slack="0"/>
  <constraint name="c39" index="38" slack="0"/>
  <constraint name="c40" index="39" slack="0"/>
  <constraint name="c41" index="40" slack="0"/>
  <constraint name="c42" index="41" slack="0"/>
  <constraint name="c43" index="42" slack="0"/>
  <constraint name="c44" index="43" slack="0"/>
  <constraint name="c45" index="44" slack="0"/>
  <constraint name="c46" index="45" slack="0"/>
  <constraint name="c47" index="46" slack="0"/>
  <constraint name="c48" index="47" slack="0"/>
  <constraint name="c49" index="48" slack="-46.999999999992724"/>
  <constraint name="c50" index="49" slack="0"/>
  <constraint name="c51" index="50" slack="0"/>
  <constraint name="c52" index="51" slack="0"/>
  <constraint name="c53" index="52" slack="-1397.9999999999782"/>
  <constraint name="c54" index="53" slack="0"/>
  <constraint name="c55" index="54" slack="-7.2759576141834259e-12"/>
  <constraint name="c56" index="55" slack="0"/>
  <constraint name="c57" index="56" slack="0"/>
  <constraint name="c58" index="57" slack="0"/>
  <constraint name="c59" index="58" slack="0"/>
  <constraint name="c60" index="59" slack="0"/>
  <constraint name="c61" index="60" slack="0"/>
  <constraint name="c62" index="61" slack="0"/>
  <constraint name="c63" index="62" slack="0"/>
  <constraint name="c64" index="63" slack="0"/>
  <constraint name="c65" index="64" slack="0"/>
  <constraint name="c66" index="65" slack="0"/>
  <constraint name="c67" index="66" slack="0"/>
  <constraint name="c68" index="67" slack="0"/>
  <constraint name="c69" index="68" slack="0"/>
  <constraint name="c70" index="69" slack="0"/>
  <constraint name="c71" index="70" slack="0"/>
  <constraint name="c72" index="71" slack="0"/>
  <constraint name="c73" index="72" slack="0"/>
  <constraint name="c74" index="73" slack="0"/>
  <constraint name="c75" index="74" slack="0"/>
  <constraint name="c76" index="75" slack="0"/>
  <constraint name="c77" index="76" slack="0"/>
  <constraint name="c78" index="77" slack="0"/>
  <constraint name="c79" index="78" slack="0"/>
  <constraint name="c80" index="79" slack="0"/>
  <constraint name="c81" index="80" slack="0"/>
  <constraint name="c82" index="81" slack="0"/>
  <constraint name="c83" index="82" slack="0"/>
  <constraint name="c84" index="83" slack="0"/>
  <constraint name="c85" index="84" slack="0"/>
  <constraint name="c86" index="85" slack="0"/>
  <constraint name="c87" index="86" slack="0"/>
  <constraint name="c88" index="87" slack="0"/>
  <constraint name="c89" index="88" slack="0"/>
  <constraint name="c90" index="89" slack="0"/>
  <constraint name="c91" index="90" slack="0"/>
  <constraint name="c92" index="91" slack="0"/>
  <constraint name="c93" index="92" slack="0"/>
  <constraint name="c94" index="93" slack="0"/>
  <constraint name="c95" index="94" slack="0"/>
  <constraint name="c96" index="95" slack="0"/>
  <constraint name="c97" index="96" slack="0"/>
  <constraint name="c98" index="97" slack="0"/>
  <constraint name="c99" index="98" slack="0"/>
  <constraint name="c100" index="99" slack="0"/>
  <constraint name="c101" index="100" slack="0"/>
  <constraint name="c102" index="101" slack="0"/>
  <constraint name="c103" index="102" slack="0"/>
  <constraint name="c104" index="103" slack="0"/>
  <constraint name="c105" index="104" slack="0"/>
  <constraint name="c106" index="105" slack="0"/>
  <constraint name="c107" index="106" slack="0"/>
  <constraint name="c108" index="107" slack="0"/>
  <constraint name="c109" index="108" slack="0"/>
  <constraint name="c110" index="109" slack="0"/>
  <constraint name="c111" index="110" slack="0"/>
  <constraint name="c112" index="111" slack="0"/>
  <constraint name="c113" index="112" slack="0"/>
  <constraint name="c114" index="113" slack="0"/>
  <constraint name="c115" index="114" slack="0"/>
  <constraint name="c116" index="115" slack="0"/>
  <constraint name="c117" index="116" slack="0"/>
  <constraint name="c118" index="117" slack="0"/>
  <constraint name="c119" index="118" slack="0"/>
  <constraint name="c120" index="119" slack="0"/>
  <constraint name="c121" index="120" slack="-12"/>
  <constraint name="c122" index="121" slack="0"/>
  <constraint name="c123" index="122" slack="0"/>
  <constraint name="c124" index="123" slack="0"/>
  <constraint name="c125" index="124" slack="0"/>
  <constraint name="c126" index="125" slack="0"/>
  <constraint name="c127" index="126" slack="0"/>
  <constraint name="c128" index="127" slack="0"/>
  <constraint name="c129" index="128" slack="0"/>
  <constraint name="c130" index="129" slack="0"/>
  <constraint name="c131" index="130" slack="0"/>
  <constraint name="c132" index="131" slack="0"/>
  <constraint name="c133" index="132" slack="0"/>
  <constraint name="c134" index="133" slack="0"/>
  <constraint name="c135" index="134" slack="40800"/>
  <constraint name="c136" index="135" slack="2091"/>
  <constraint name="c137" index="136" slack="40784"/>
  <constraint name="c138" index="137" slack="2228"/>
  <constraint name="c139" index="138" slack="40702"/>
  <constraint name="c140" index="139" slack="2214"/>
  <constraint name="c141" index="140" slack="40439"/>
  <constraint name="c142" index="141" slack="1856"/>
  <constraint name="c143" index="142" slack="40799"/>
  <constraint name="c144" index="143" slack="1861"/>
  <constraint name="c145" index="144" slack="40693"/>
  <constraint name="c146" index="145" slack="1951"/>
  <constraint name="c147" index="146" slack="40230"/>
  <constraint name="c148" index="147" slack="2207"/>
  <constraint name="c149" index="148" slack="40289"/>
  <constraint name="c150" index="149" slack="2490"/>
  <constraint name="c151" index="150" slack="40019.999999999993"/>
  <constraint name="c152" index="151" slack="2384.0000000000073"/>
  <constraint name="c153" index="152" slack="1030"/>
  <constraint name="c154" index="153" slack="41883"/>
  <constraint name="c155" index="154" slack="1105"/>
  <constraint name="c156" index="155" slack="41900"/>
  <constraint name="c157" index="156" slack="1008"/>
  <constraint name="c158" index="157" slack="41797"/>
  <constraint name="c159" index="158" slack="1078"/>
  <constraint name="c160" index="159" slack="41934"/>
  <constraint name="c161" index="160" slack="996"/>
  <constraint name="c162" index="161" slack="41920"/>
  <constraint name="c163" index="162" slack="733"/>
  <constraint name="c164" index="163" slack="41562"/>
  <constraint name="c165" index="164" slack="1093"/>
  <constraint name="c166" index="165" slack="41567"/>
  <constraint name="c167" index="166" slack="987"/>
  <constraint name="c168" index="167" slack="41657"/>
  <constraint name="c169" index="168" slack="524"/>
  <constraint name="c170" index="169" slack="41913"/>
  <constraint name="c171" index="170" slack="583"/>
  <constraint name="c172" index="171" slack="42196"/>
  <constraint name="c173" index="172" slack="267"/>
  <constraint name="c174" index="173" slack="42137"/>
  <constraint name="c175" index="174" slack="42958"/>
  <constraint name="c176" index="175" slack="15"/>
  <constraint name="c177" index="176" slack="42673"/>
  <constraint name="c178" index="177" slack="272"/>
  <constraint name="c179" index="178" slack="42215"/>
  <constraint name="c180" index="179" slack="557"/>
  <constraint name="c181" index="180" slack="42035"/>
  <constraint name="c182" index="181" slack="985"/>
  <constraint name="c183" index="182" slack="41766"/>
  <constraint name="c184" index="183" slack="1165"/>
  <constraint name="c185" index="184" slack="40981"/>
  <constraint name="c186" index="185" slack="1474"/>
  <constraint name="c187" index="186" slack="40441"/>
  <constraint name="c188" index="187" slack="2219"/>
  <constraint name="c189" index="188" slack="39855"/>
  <constraint name="c190" index="189" slack="2759"/>
  <constraint name="c191" index="190" slack="38852"/>
  <constraint name="c192" index="191" slack="3615"/>
  <constraint name="c193" index="192" slack="38515"/>
  <constraint name="c194" index="193" slack="4348"/>
  <constraint name="c195" index="194" slack="3316"/>
  <constraint name="c196" index="195" slack="39614"/>
  <constraint name="c197" index="196" slack="3414"/>
  <constraint name="c198" index="197" slack="39626"/>
  <constraint name="c199" index="198" slack="3372"/>
  <constraint name="c200" index="199" slack="39584"/>
  <constraint name="c201" index="200" slack="3014"/>
  <constraint name="c202" index="201" slack="39226"/>
  <constraint name="c203" index="202" slack="3254"/>
  <constraint name="c204" index="203" slack="39466"/>
  <constraint name="c205" index="204" slack="3284"/>
  <constraint name="c206" index="205" slack="39496"/>
  <constraint name="c207" index="206" slack="3194"/>
  <constraint name="c208" index="207" slack="39406"/>
  <constraint name="c209" index="208" slack="3314"/>
  <constraint name="c210" index="209" slack="39526"/>
  <constraint name="c211" index="210" slack="3147.0000000000073"/>
  <constraint name="c212" index="211" slack="39452.999999999993"/>
  <constraint name="c213" index="212" slack="1323"/>
  <constraint name="c214" index="213" slack="41574"/>
  <constraint name="c215" index="214" slack="1171"/>
  <constraint name="c216" index="215" slack="41877"/>
  <constraint name="c217" index="216" slack="942"/>
  <constraint name="c218" index="217" slack="42029"/>
  <constraint name="c219" index="218" slack="62"/>
  <constraint name="c220" index="219" slack="42338"/>
  <constraint name="c221" index="220" slack="42602"/>
  <constraint name="c222" index="221" slack="118"/>
  <constraint name="c223" index="222" slack="42152"/>
  <constraint name="c224" index="223" slack="598"/>
  <constraint name="c225" index="224" slack="41522"/>
  <constraint name="c226" index="225" slack="1108"/>
  <constraint name="c227" index="226" slack="41246"/>
  <constraint name="c228" index="227" slack="1678"/>
  <constraint name="c229" index="228" slack="2088"/>
  <constraint name="c230" index="229" slack="41022"/>
  <constraint name="c231" index="230" slack="402.00000000002183"/>
  <constraint name="c232" index="231" slack="42569.999999999978"/>
  <constraint name="c233" index="232" slack="1.4551915228366852e-11"/>
  <constraint name="c234" index="233" slack="42797.999999999985"/>
  <constraint name="c235" index="234" slack="3048"/>
  <constraint name="c236" index="235" slack="40062"/>
  <constraint name="c237" index="236" slack="1630.0000000000218"/>
  <constraint name="c238" index="237" slack="41349.999999999978"/>
  <constraint name="c239" index="238" slack="1490.0000000000146"/>
  <constraint name="c240" index="239" slack="41209.999999999985"/>
  <constraint name="c241" index="240" slack="1338"/>
  <constraint name="c242" index="241" slack="41460"/>
  <constraint name="c243" index="242" slack="1110"/>
  <constraint name="c244" index="243" slack="41862"/>
  <constraint name="c245" index="244" slack="870"/>
  <constraint name="c246" index="245" slack="42150"/>
  <constraint name="c247" index="246" slack="630"/>
  <constraint name="c248" index="247" slack="42390"/>
  <constraint name="c249" index="248" slack="301"/>
  <constraint name="c250" index="249" slack="42630"/>
  <constraint name="c251" index="250" slack="226"/>
  <constraint name="c252" index="251" slack="42899"/>
  <constraint name="c253" index="252" slack="0"/>
  <constraint name="c254" index="253" slack="42974"/>
  <constraint name="c255" index="254" slack="42438"/>
  <constraint name="c256" index="255" slack="252"/>
  <constraint name="c257" index="256" slack="42078"/>
  <constraint name="c258" index="257" slack="822"/>
  <constraint name="c259" index="258" slack="41778"/>
  <constraint name="c260" index="259" slack="1182"/>
  <constraint name="c261" index="260" slack="41478"/>
  <constraint name="c262" index="261" slack="1482"/>
  <constraint name="c263" index="262" slack="41029"/>
  <constraint name="c264" index="263" slack="1782"/>
  <constraint name="c265" index="264" slack="40877"/>
  <constraint name="c266" index="265" slack="2171"/>
  <constraint name="c267" index="266" slack="40648"/>
  <constraint name="c268" index="267" slack="2323"/>
  <constraint name="c269" index="268" slack="39768"/>
  <constraint name="c270" index="269" slack="2632"/>
  <constraint name="c271" index="270" slack="39108"/>
  <constraint name="c272" index="271" slack="3612"/>
  <constraint name="c273" index="272" slack="38658"/>
  <constraint name="c274" index="273" slack="4092"/>
  <constraint name="c275" index="274" slack="38028"/>
  <constraint name="c276" index="275" slack="4602"/>
  <constraint name="c277" index="276" slack="37752"/>
  <constraint name="c278" index="277" slack="5172"/>
  <constraint name="c279" index="278" slack="0"/>
  <constraint name="c280" index="279" slack="180"/>
  <constraint name="c281" index="280" slack="360"/>
  <constraint name="c282" index="281" slack="43020.000000000007"/>
  <constraint name="c283" index="282" slack="-4.5474735088646412e-13"/>
  <constraint name="c284" index="283" slack="180.00000000000728"/>
  <constraint name="c285" index="284" slack="41313.000000000015"/>
  <constraint name="c286" index="285" slack="41493.000000000015"/>
  <constraint name="c287" index="286" slack="41673.000000000015"/>
  <constraint name="c288" index="287" slack="43173"/>
  <constraint name="c289" index="288" slack="153"/>
  <constraint name="c290" index="289" slack="333"/>
  <constraint name="c291" index="290" slack="43173"/>
  <constraint name="c292" index="291" slack="153"/>
  <constraint name="c293" index="292" slack="333"/>
 </linearConstraints>
 <variables>
  <variable name="thr_0_31_0" index="0" value="-0"/>
  <variable name="thr_0_31_180" index="1" value="-0"/>
  <variable name="thr_0_31_360" index="2" value="-0"/>
  <variable name="thr_1_17_0" index="3" value="1"/>
  <variable name="thr_1_17_180" index="4" value="-1.7790062383391826e-16"/>
  <variable name="thr_1_17_360" index="5" value="-0"/>
  <variable name="thr_2_5_0" index="6" value="1"/>
  <variable name="thr_2_5_180" index="7" value="1"/>
  <variable name="thr_2_5_360" index="8" value="1"/>
  <variable name="thr_3_39_0" index="9" value="1"/>
  <variable name="thr_3_39_180" index="10" value="-0"/>
  <variable name="thr_3_39_360" index="11" value="-0"/>
  <variable name="thr_4_37_0" index="12" value="1"/>
  <variable name="thr_4_37_180" index="13" value="-0"/>
  <variable name="thr_4_37_360" index="14" value="-0"/>
  <variable name="t_0_0" index="15" value="1177"/>
  <variable name="t_0_1" index="16" value="1941"/>
  <variable name="t_0_2" index="17" value="2078"/>
  <variable name="t_0_3" index="18" value="2078"/>
  <variable name="t_0_4" index="19" value="2183"/>
  <variable name="t_0_5" index="20" value="2183"/>
  <variable name="t_0_6" index="21" value="2400"/>
  <variable name="t_0_7" index="22" value="2400"/>
  <variable name="t_0_8" index="23" value="2508"/>
  <variable name="t_0_9" index="24" value="2508"/>
  <variable name="t_0_10" index="25" value="2670"/>
  <variable name="t_0_11" index="26" value="2670"/>
  <variable name="t_0_12" index="27" value="3095"/>
  <variable name="t_0_13" index="28" value="3095"/>
  <variable name="t_0_14" index="29" value="3395"/>
  <variable name="t_0_15" index="30" value="3395"/>
  <variable name="t_0_16" index="31" value="3741"/>
  <variable name="t_0_17" index="32" value="3981"/>
  <variable name="t_0_18" index="33" value="4444"/>
  <variable name="t_0_19" index="34" value="4444"/>
  <variable name="t_0_20" index="35" value="4685"/>
  <variable name="t_0_21" index="36" value="4685"/>
  <variable name="t_0_22" index="37" value="5181"/>
  <variable name="t_0_23" index="38" value="11541"/>
  <variable name="t_0_24" index="39" value="11931"/>
  <variable name="t_0_25" index="40" value="11931"/>
  <variable name="t_0_26" index="41" value="12211"/>
  <variable name="t_0_27" index="42" value="12211"/>
  <variable name="t_0_28" index="43" value="12741"/>
  <variable name="t_0_29" index="44" value="13041"/>
  <variable name="t_0_30" index="45" value="13505"/>
  <variable name="t_0_31" index="46" value="13505"/>
  <variable name="t_0_32" index="47" value="43200"/>
  <variable name="t_1_0" index="48" value="0"/>
  <variable name="t_1_1" index="49" value="0"/>
  <variable name="t_1_2" index="50" value="92"/>
  <variable name="t_1_3" index="51" value="92"/>
  <variable name="t_1_4" index="52" value="172"/>
  <variable name="t_1_5" index="53" value="172"/>
  <variable name="t_1_6" index="54" value="294"/>
  <variable name="t_1_7" index="55" value="334"/>
  <variable name="t_1_8" index="56" value="814"/>
  <variable name="t_1_9" index="57" value="994"/>
  <variable name="t_1_10" index="58" value="1234"/>
  <variable name="t_1_11" index="59" value="1234"/>
  <variable name="t_1_12" index="60" value="1444"/>
  <variable name="t_1_13" index="61" value="1474"/>
  <variable name="t_1_14" index="62" value="1774"/>
  <variable name="t_1_15" index="63" value="1774"/>
  <variable name="t_1_16" index="64" value="1954"/>
  <variable name="t_1_17" index="65" value="2000.9999999999927"/>
  <variable name="t_1_18" index="66" value="2300.9999999999927"/>
  <variable name="t_2_0" index="67" value="0"/>
  <variable name="t_2_1" index="68" value="0"/>
  <variable name="t_2_2" index="69" value="0"/>
  <variable name="t_2_3" index="70" value="1427.9999999999782"/>
  <variable name="t_2_4" index="71" value="1537.9999999999782"/>
  <variable name="t_2_5" index="72" value="1537.9999999999854"/>
  <variable name="t_2_6" index="73" value="1787.9999999999854"/>
  <variable name="t_3_0" index="74" value="1728"/>
  <variable name="t_3_1" index="75" value="1788"/>
  <variable name="t_3_2" index="76" value="1940"/>
  <variable name="t_3_3" index="77" value="1940"/>
  <variable name="t_3_4" index="78" value="2058"/>
  <variable name="t_3_5" index="79" value="2088"/>
  <variable name="t_3_6" index="80" value="2178"/>
  <variable name="t_3_7" index="81" value="2208"/>
  <variable name="t_3_8" index="82" value="2298"/>
  <variable name="t_3_9" index="83" value="2328"/>
  <variable name="t_3_10" index="84" value="2447"/>
  <variable name="t_3_11" index="85" value="2447"/>
  <variable name="t_3_12" index="86" value="2492"/>
  <variable name="t_3_13" index="87" value="2492"/>
  <variable name="t_3_14" index="88" value="2628"/>
  <variable name="t_3_15" index="89" value="2688"/>
  <variable name="t_3_16" index="90" value="2898"/>
  <variable name="t_3_17" index="91" value="2928"/>
  <variable name="t_3_18" index="92" value="3078"/>
  <variable name="t_3_19" index="93" value="3108"/>
  <variable name="t_3_20" index="94" value="3258"/>
  <variable name="t_3_21" index="95" value="3288"/>
  <variable name="t_3_22" index="96" value="3378"/>
  <variable name="t_3_23" index="97" value="3408"/>
  <variable name="t_3_24" index="98" value="3586"/>
  <variable name="t_3_25" index="99" value="3586"/>
  <variable name="t_3_26" index="100" value="3666"/>
  <variable name="t_3_27" index="101" value="3666"/>
  <variable name="t_3_28" index="102" value="3788"/>
  <variable name="t_3_29" index="103" value="3828"/>
  <variable name="t_3_30" index="104" value="4308"/>
  <variable name="t_3_31" index="105" value="4488"/>
  <variable name="t_3_32" index="106" value="4728"/>
  <variable name="t_3_33" index="107" value="4728"/>
  <variable name="t_3_34" index="108" value="4938"/>
  <variable name="t_3_35" index="109" value="4968"/>
  <variable name="t_3_36" index="110" value="5268"/>
  <variable name="t_3_37" index="111" value="5268"/>
  <variable name="t_3_38" index="112" value="5448"/>
  <variable name="t_3_39" index="113" value="5448"/>
  <variable name="t_3_40" index="114" value="5748"/>
  <variable name="t_4_0" index="115" value="0"/>
  <variable name="t_4_1" index="116" value="0"/>
  <variable name="t_4_2" index="117" value="96"/>
  <variable name="t_4_3" index="118" value="96"/>
  <variable name="t_4_4" index="119" value="366"/>
  <variable name="t_4_5" index="120" value="396"/>
  <variable name="t_4_6" index="121" value="636"/>
  <variable name="t_4_7" index="122" value="636"/>
  <variable name="t_4_8" index="123" value="876"/>
  <variable name="t_4_9" index="124" value="876"/>
  <variable name="t_4_10" index="125" value="1196"/>
  <variable name="t_4_11" index="126" value="1236"/>
  <variable name="t_4_12" index="127" value="1343"/>
  <variable name="t_4_13" index="128" value="1343"/>
  <variable name="t_4_14" index="129" value="1415"/>
  <variable name="t_4_15" index="130" value="1415"/>
  <variable name="t_4_16" index="131" value="1626"/>
  <variable name="t_4_17" index="132" value="1656"/>
  <variable name="t_4_18" index="133" value="1806"/>
  <variable name="t_4_19" index="134" value="1836"/>
  <variable name="t_4_20" index="135" value="1926"/>
  <variable name="t_4_21" index="136" value="1956"/>
  <variable name="t_4_22" index="137" value="2106"/>
  <variable name="t_4_23" index="138" value="2136"/>
  <variable name="t_4_24" index="139" value="2436"/>
  <variable name="t_4_25" index="140" value="2628"/>
  <variable name="t_4_26" index="141" value="2718"/>
  <variable name="t_4_27" index="142" value="2718"/>
  <variable name="t_4_28" index="143" value="2748"/>
  <variable name="t_4_29" index="144" value="2748"/>
  <variable name="t_4_30" index="145" value="2898"/>
  <variable name="t_4_31" index="146" value="2928"/>
  <variable name="t_4_32" index="147" value="3018"/>
  <variable name="t_4_33" index="148" value="3048"/>
  <variable name="t_4_34" index="149" value="3138"/>
  <variable name="t_4_35" index="150" value="3168"/>
  <variable name="t_4_36" index="151" value="3278"/>
  <variable name="t_4_37" index="152" value="3278"/>
  <variable name="t_4_38" index="153" value="3528"/>
  <variable name="y_0_5_1_1" index="154" value="-0"/>
  <variable name="y_0_7_1_3" index="155" value="-0"/>
  <variable name="y_0_9_1_5" index="156" value="-0"/>
  <variable name="y_0_11_1_7" index="157" value="-0"/>
  <variable name="y_0_13_1_9" index="158" value="-0"/>
  <variable name="y_0_15_1_11" index="159" value="-0"/>
  <variable name="y_0_17_1_13" index="160" value="-0"/>
  <variable name="y_0_19_1_15" index="161" value="-0"/>
  <variable name="y_0_21_1_17" index="162" value="-0"/>
  <variable name="y_0_1_3_19" index="163" value="1"/>
  <variable name="y_0_3_3_21" index="164" value="1"/>
  <variable name="y_0_5_3_23" index="165" value="1"/>
  <variable name="y_0_7_3_25" index="166" value="1"/>
  <variable name="y_0_9_3_27" index="167" value="1"/>
  <variable name="y_0_11_3_29" index="168" value="1"/>
  <variable name="y_0_13_3_31" index="169" value="1"/>
  <variable name="y_0_15_3_33" index="170" value="1"/>
  <variable name="y_0_17_3_35" index="171" value="1"/>
  <variable name="y_0_19_3_37" index="172" value="1"/>
  <variable name="y_0_21_3_39" index="173" value="1"/>
  <variable name="y_0_1_4_19" index="174" value="-0"/>
  <variable name="y_0_3_4_17" index="175" value="-0"/>
  <variable name="y_0_5_4_15" index="176" value="-0"/>
  <variable name="y_0_7_4_13" index="177" value="-0"/>
  <variable name="y_0_9_4_11" index="178" value="-0"/>
  <variable name="y_0_11_4_9" index="179" value="-0"/>
  <variable name="y_0_13_4_7" index="180" value="-0"/>
  <variable name="y_0_15_4_5" index="181" value="-0"/>
  <variable name="y_0_17_4_3" index="182" value="-0"/>
  <variable name="y_0_19_4_1" index="183" value="-0"/>
  <variable name="y_1_1_3_23" index="184" value="1"/>
  <variable name="y_1_3_3_25" index="185" value="1"/>
  <variable name="y_1_5_3_27" index="186" value="1"/>
  <variable name="y_1_7_3_29" index="187" value="1"/>
  <variable name="y_1_9_3_31" index="188" value="1"/>
  <variable name="y_1_11_3_33" index="189" value="1"/>
  <variable name="y_1_13_3_35" index="190" value="1"/>
  <variable name="y_1_15_3_37" index="191" value="1"/>
  <variable name="y_1_17_3_39" index="192" value="1"/>
  <variable name="y_1_1_4_15" index="193" value="1"/>
  <variable name="y_1_3_4_13" index="194" value="1"/>
  <variable name="y_1_5_4_11" index="195" value="1"/>
  <variable name="y_1_7_4_9" index="196" value="1"/>
  <variable name="y_1_9_4_7" index="197" value="-0"/>
  <variable name="y_1_11_4_5" index="198" value="-0"/>
  <variable name="y_1_13_4_3" index="199" value="-0"/>
  <variable name="y_1_15_4_1" index="200" value="-0"/>
  <variable name="y_2_1_3_5" index="201" value="1"/>
  <variable name="y_2_3_3_3" index="202" value="1"/>
  <variable name="y_2_5_3_1" index="203" value="1"/>
  <variable name="y_2_1_4_33" index="204" value="1"/>
  <variable name="y_2_3_4_35" index="205" value="1"/>
  <variable name="y_2_5_4_37" index="206" value="1"/>
  <variable name="y_3_1_4_37" index="207" value="1"/>
  <variable name="y_3_3_4_35" index="208" value="1"/>
  <variable name="y_3_5_4_33" index="209" value="1"/>
  <variable name="y_3_7_4_31" index="210" value="1"/>
  <variable name="y_3_9_4_29" index="211" value="1"/>
  <variable name="y_3_11_4_27" index="212" value="1"/>
  <variable name="y_3_13_4_25" index="213" value="1"/>
  <variable name="y_3_15_4_23" index="214" value="-0"/>
  <variable name="y_3_17_4_21" index="215" value="-0"/>
  <variable name="y_3_19_4_19" index="216" value="-0"/>
  <variable name="y_3_21_4_17" index="217" value="-0"/>
  <variable name="y_3_23_4_15" index="218" value="-0"/>
  <variable name="y_3_25_4_13" index="219" value="-0"/>
  <variable name="y_3_27_4_11" index="220" value="-0"/>
  <variable name="y_3_29_4_9" index="221" value="-0"/>
  <variable name="y_3_31_4_7" index="222" value="-0"/>
  <variable name="y_3_33_4_5" index="223" value="-0"/>
  <variable name="y_3_35_4_3" index="224" value="-0"/>
  <variable name="y_3_37_4_1" index="225" value="-0"/>
 </variables>
</CPLEXSolution>
